c CNF formula generated by generate_input.py
c Number of variables: 50
c Number of clauses: 50
c Clause length: random between 1 and 4
p cnf 50 50
16 44 0
-38 -24 0
-23 0
-46 31 0
32 -50 45 0
47 -14 -11 0
8 19 0
32 -24 12 0
-43 37 0
-39 -38 -3 0
-16 44 0
-50 0
-47 7 2 0
21 0
18 -3 0
-2 15 0
-4 -45 0
39 2 0
48 -20 19 0
49 -5 0
-47 5 20 49 0
-29 -1 -14 0
-6 26 -28 0
27 0
-5 12 0
-37 -27 -43 0
48 -50 -23 -41 0
-15 -6 11 43 0
22 -18 39 0
-7 16 0
-30 0
-18 31 46 -2 0
-34 16 -35 -31 0
28 -17 -42 -37 0
-46 0
35 -4 -21 28 0
10 24 33 0
35 0
-40 11 25 0
22 -2 -31 19 0
20 22 -46 0
21 -17 0
-43 35 -29 0
-25 -49 15 0
6 0
34 31 -8 0
-39 0
-19 0
-31 0
-50 -1 37 24 0
